num_servers = 12;
sid = [0, 1, 2, 3, 4, 5, 6, 7, 8, 9, 10, 11];
scpu = [5, 5, 5, 5, 5, 2, 5, 5, 5, 5, 5, 2];
sram = [96, 12, 49, 96, 12, 24, 96, 12, 6, 30, 30, 24];

num_vms = 48;
vjob = [0, 1, 2, 3, 3, 3, 4, 5, 6, 6, 7, 7, 8, 8, 8, 8, 8, 8, 8, 9, 10, 11, 12, 13, 13, 13, 13, 14, 15, 16, 17, 18, 19, 19, 19, 19, 20, 21, 22, 23, 24, 25, 26, 26, 27, 28, 29, 30];
vindex = [0, 0, 0, 0, 1, 2, 0, 0, 0, 1, 0, 1, 0, 1, 2, 3, 4, 5, 6, 0, 0, 0, 0, 0, 1, 2, 3, 0, 0, 0, 0, 0, 0, 1, 2, 3, 0, 0, 0, 0, 0, 0, 0, 1, 0, 0, 0, 0];
vcpu = [1, 1, 1, 1, 1, 1, 1, 1, 1, 1, 1, 1, 1, 1, 1, 1, 1, 1, 1, 1, 1, 1, 1, 1, 1, 1, 1, 1, 1, 1, 1, 1, 1, 1, 1, 1, 1, 1, 1, 1, 1, 1, 1, 1, 1, 1, 1, 1];
vram = [1, 1, 1, 1, 1, 1, 1, 1, 1, 1, 1, 1, 1, 1, 1, 1, 1, 1, 1, 1, 1, 1, 1, 1, 1, 1, 1, 1, 1, 1, 1, 1, 1, 1, 1, 1, 1, 1, 1, 1, 1, 1, 1, 1, 1, 1, 1, 1];
vac = [true, true, true, true, true, true, true, true, true, true, true, true, true, true, true, true, true, true, true, true, true, true, true, true, true, true, true, true, true, true, true, true, true, true, true, true, true, true, true, true, true, true, true, true, true, true, true, true];
